p cnf 6 18
6 4 -5 0
5 -1 -4 0
-4 6 3 0
-4 -3 -1 -6 0
-5 2 -3 0
-1 6 -2 0
-4 -6 -1 0
3 -6 0
-5 2 3 0
3 -2 -4 0
4 -3 -1 6 5 0
4 3 -5 -2 0
3 -5 -2 1 6 0
2 -1 -5 0
-4 -6 -3 2 0
-5 6 0
5 -3 -4 0
4 -2 6 1 0
